NAME : in_house_7_17
TYPE : TSP
DIMENSION : 7
EDGE_WEIGHT_TYPE : EXPLICIT
EDGE_WEIGHT_FORMAT : UPPER_ROW
COMMENT : INVERSION_SHIFT=6
EDGE_WEIGHT_SECTION
19
4
43
12
25
49
12
30
7
36
3
32
36
21
21
21
10
40
19
7
40
